128460
75 0 2 1 20 21 22 23 26 30 31 32 35 34 19 7 8 9 10 71 72 60 61 62 59 58 56 57 52 53 55 54 73 74 4 5 6 13 17 36 39 38 37 15 16 14 68 69 65 64 63 48 49 51 50 41 42 43 44 47 46 45 67 66 70 11 12 18 33 28 29 40 24 25 27 3 
